Pt  O  C  H                             
   1.00000000000000     
    11.0209174073821501    0.0000000000000000    0.0000000000000000
     5.5104587036910750    9.5443944478030733    0.0000000000000000
     0.0000000000000000    0.0000000000000000   31.7489060363607898
   Pt   O    C    H 
    64     1     1     2
Selective dynamics
Direct
  0.0000000000000000  0.0000000000000000  0.3937143530452403   F   F   F
  0.2500000000000000  0.0000000000000000  0.3937143530452403   F   F   F
  0.5000000000000000  0.0000000000000000  0.3937143530452403   F   F   F
  0.7500000000000000  0.0000000000000000  0.3937143530452403   F   F   F
  0.0000000000000000  0.2500000000000000  0.3937143530452403   F   F   F
  0.2500000000000000  0.2500000000000000  0.3937143530452403   F   F   F
  0.5000000000000000  0.2500000000000000  0.3937143530452403   F   F   F
  0.7500000000000000  0.2500000000000000  0.3937143530452403   F   F   F
  0.0000000000000000  0.5000000000000000  0.3937143530452403   F   F   F
  0.2500000000000000  0.5000000000000000  0.3937143530452403   F   F   F
  0.5000000000000000  0.5000000000000000  0.3937143530452403   F   F   F
  0.7500000000000000  0.5000000000000000  0.3937143530452403   F   F   F
  0.0000000000000000  0.7500000000000000  0.3937143530452403   F   F   F
  0.2500000000000000  0.7500000000000000  0.3937143530452403   F   F   F
  0.5000000000000000  0.7500000000000000  0.3937143530452403   F   F   F
  0.7500000000000000  0.7500000000000000  0.3937143530452403   F   F   F
  0.0833333333333357  0.0833333333333357  0.4645714510150825   F   F   F
  0.3333333333333357  0.0833333333333357  0.4645714510150825   F   F   F
  0.5833333333333357  0.0833333333333357  0.4645714510150825   F   F   F
  0.8333333333333357  0.0833333333333357  0.4645714510150825   F   F   F
  0.0833333333333357  0.3333333333333357  0.4645714510150825   F   F   F
  0.3333333333333357  0.3333333333333357  0.4645714510150825   F   F   F
  0.5833333333333357  0.3333333333333357  0.4645714510150825   F   F   F
  0.8333333333333357  0.3333333333333357  0.4645714510150825   F   F   F
  0.0833333333333357  0.5833333333333357  0.4645714510150825   F   F   F
  0.3333333333333357  0.5833333333333357  0.4645714510150825   F   F   F
  0.5833333333333357  0.5833333333333357  0.4645714510150825   F   F   F
  0.8333333333333357  0.5833333333333357  0.4645714510150825   F   F   F
  0.0833333333333357  0.8333333333333357  0.4645714510150825   F   F   F
  0.3333333333333357  0.8333333333333357  0.4645714510150825   F   F   F
  0.5833333333333357  0.8333333333333357  0.4645714510150825   F   F   F
  0.8333333333333357  0.8333333333333357  0.4645714510150825   F   F   F
  0.9171324500814109  0.1657350998371783  0.5357815955773333   T   T   T
  0.1663742296648891  0.1671721478296462  0.5347123381103884   T   T   T
  0.4165699726879737  0.1668600546240455  0.5346723611130102   T   T   T
  0.6664536225054576  0.1671721478296462  0.5347123381103884   T   T   T
  0.9161821887738242  0.4172280507005510  0.5344559677819163   T   T   T
  0.1662192660880990  0.4173901877006898  0.5346967464557792   T   T   T
  0.4163905462112112  0.4173901877006898  0.5346967464557792   T   T   T
  0.6665897605256177  0.4172280507005510  0.5344559677819163   T   T   T
  0.9163519831257076  0.6678082750111329  0.5344651740730697   T   T   T
  0.1663835131420015  0.6672329737159899  0.5348490532284274   T   T   T
  0.4158397418631523  0.6678082750111329  0.5344651740730697   T   T   T
  0.6662577659395978  0.6674844681207901  0.5346016103651081   T   T   T
  0.9175877246821571  0.9183447857364442  0.5361320507601945   T   T   T
  0.1640674895813916  0.9183447857364442  0.5361320507601945   T   T   T
  0.4157805738631097  0.9170913091645190  0.5345239423593142   T   T   T
  0.6671281169723642  0.9170913091645190  0.5345239423593142   T   T   T
  0.9993132588865521  0.0013734822269029  0.6111275316956082   T   T   T
  0.2520932231832163  0.0006097590729155  0.6057740697550074   T   T   T
  0.4997123411625921  0.0005753176748158  0.6056204051251513   T   T   T
  0.7472970177438683  0.0006097590729155  0.6057740697550074   T   T   T
  0.9992123420947365  0.2536209155907372  0.6055501736016708   T   T   T
  0.2497578869249182  0.2509923740879572  0.6056752426460434   T   T   T
  0.4992497389871247  0.2509923740879572  0.6056752426460434   T   T   T
  0.7471667423145263  0.2536209155907372  0.6055501736016708   T   T   T
  0.9994200562148094  0.5009841668180144  0.6057314688733300   T   T   T
  0.2500349373091808  0.4999301253816384  0.6059720260623678   T   T   T
  0.4995957769671762  0.5009841668180144  0.6057314688733300   T   T   T
  0.7492877100774678  0.5014245798450645  0.6056884890686760   T   T   T
  0.0002948577925110  0.7475505995793768  0.6060612169795974   T   T   T
  0.2521545426281051  0.7475505995793768  0.6060612169795974   T   T   T
  0.4998245122264038  0.7505612221297540  0.6056581657150915   T   T   T
  0.7496142656438423  0.7505612221297540  0.6056581657150915   T   T   T
  0.0598612508434044  0.8802774983131982  0.6922495802552930   T   T   T
  0.0032944182915031  0.9934111634170009  0.6702343669418411   T   T   T
  0.1016632804784479  0.7966734390431043  0.6722401959157835   T   T   T
  0.9556669222284810  0.0886661555430308  0.6900285676367304   T   T   T
 
  0.00000000E+00  0.00000000E+00  0.00000000E+00
  0.00000000E+00  0.00000000E+00  0.00000000E+00
  0.00000000E+00  0.00000000E+00  0.00000000E+00
  0.00000000E+00  0.00000000E+00  0.00000000E+00
  0.00000000E+00  0.00000000E+00  0.00000000E+00
  0.00000000E+00  0.00000000E+00  0.00000000E+00
  0.00000000E+00  0.00000000E+00  0.00000000E+00
  0.00000000E+00  0.00000000E+00  0.00000000E+00
  0.00000000E+00  0.00000000E+00  0.00000000E+00
  0.00000000E+00  0.00000000E+00  0.00000000E+00
  0.00000000E+00  0.00000000E+00  0.00000000E+00
  0.00000000E+00  0.00000000E+00  0.00000000E+00
  0.00000000E+00  0.00000000E+00  0.00000000E+00
  0.00000000E+00  0.00000000E+00  0.00000000E+00
  0.00000000E+00  0.00000000E+00  0.00000000E+00
  0.00000000E+00  0.00000000E+00  0.00000000E+00
  0.00000000E+00  0.00000000E+00  0.00000000E+00
  0.00000000E+00  0.00000000E+00  0.00000000E+00
  0.00000000E+00  0.00000000E+00  0.00000000E+00
  0.00000000E+00  0.00000000E+00  0.00000000E+00
  0.00000000E+00  0.00000000E+00  0.00000000E+00
  0.00000000E+00  0.00000000E+00  0.00000000E+00
  0.00000000E+00  0.00000000E+00  0.00000000E+00
  0.00000000E+00  0.00000000E+00  0.00000000E+00
  0.00000000E+00  0.00000000E+00  0.00000000E+00
  0.00000000E+00  0.00000000E+00  0.00000000E+00
  0.00000000E+00  0.00000000E+00  0.00000000E+00
  0.00000000E+00  0.00000000E+00  0.00000000E+00
  0.00000000E+00  0.00000000E+00  0.00000000E+00
  0.00000000E+00  0.00000000E+00  0.00000000E+00
  0.00000000E+00  0.00000000E+00  0.00000000E+00
  0.00000000E+00  0.00000000E+00  0.00000000E+00
  0.00000000E+00  0.00000000E+00  0.00000000E+00
  0.00000000E+00  0.00000000E+00  0.00000000E+00
  0.00000000E+00  0.00000000E+00  0.00000000E+00
  0.00000000E+00  0.00000000E+00  0.00000000E+00
  0.00000000E+00  0.00000000E+00  0.00000000E+00
  0.00000000E+00  0.00000000E+00  0.00000000E+00
  0.00000000E+00  0.00000000E+00  0.00000000E+00
  0.00000000E+00  0.00000000E+00  0.00000000E+00
  0.00000000E+00  0.00000000E+00  0.00000000E+00
  0.00000000E+00  0.00000000E+00  0.00000000E+00
  0.00000000E+00  0.00000000E+00  0.00000000E+00
  0.00000000E+00  0.00000000E+00  0.00000000E+00
  0.00000000E+00  0.00000000E+00  0.00000000E+00
  0.00000000E+00  0.00000000E+00  0.00000000E+00
  0.00000000E+00  0.00000000E+00  0.00000000E+00
  0.00000000E+00  0.00000000E+00  0.00000000E+00
  0.00000000E+00  0.00000000E+00  0.00000000E+00
  0.00000000E+00  0.00000000E+00  0.00000000E+00
  0.00000000E+00  0.00000000E+00  0.00000000E+00
  0.00000000E+00  0.00000000E+00  0.00000000E+00
  0.00000000E+00  0.00000000E+00  0.00000000E+00
  0.00000000E+00  0.00000000E+00  0.00000000E+00
  0.00000000E+00  0.00000000E+00  0.00000000E+00
  0.00000000E+00  0.00000000E+00  0.00000000E+00
  0.00000000E+00  0.00000000E+00  0.00000000E+00
  0.00000000E+00  0.00000000E+00  0.00000000E+00
  0.00000000E+00  0.00000000E+00  0.00000000E+00
  0.00000000E+00  0.00000000E+00  0.00000000E+00
  0.00000000E+00  0.00000000E+00  0.00000000E+00
  0.00000000E+00  0.00000000E+00  0.00000000E+00
  0.00000000E+00  0.00000000E+00  0.00000000E+00
  0.00000000E+00  0.00000000E+00  0.00000000E+00
  0.00000000E+00  0.00000000E+00  0.00000000E+00
  0.00000000E+00  0.00000000E+00  0.00000000E+00
  0.00000000E+00  0.00000000E+00  0.00000000E+00
  0.00000000E+00  0.00000000E+00  0.00000000E+00
