Ir  C  H                                
   1.00000000000000     
    10.8040004845381254    0.0000000000000000    0.0000000000000000
     5.4020002422690627    9.3565388821093993    0.0000000000000000
     0.0000000000000000    0.0000000000000000   31.6160720919751554
   Ir   C    H 
    64     1     3
Selective dynamics
Direct
  0.3333077443307388  0.0833845113385223  0.3953685316643956   F   F   F
  0.5833077443307388  0.0833845113385223  0.3953685316643956   F   F   F
  0.8333077443307388  0.0833845113385223  0.3953685316643956   F   F   F
  0.0833077443307388  0.0833845113385223  0.3953685316643956   F   F   F
  0.3333077443307388  0.3333845113385223  0.3953685316643956   F   F   F
  0.5833077443307388  0.3333845113385223  0.3953685316643956   F   F   F
  0.8333077443307388  0.3333845113385223  0.3953685316643956   F   F   F
  0.0833077443307388  0.3333845113385223  0.3953685316643956   F   F   F
  0.3333077443307388  0.5833845113385223  0.3953685316643956   F   F   F
  0.5833077443307388  0.5833845113385223  0.3953685316643956   F   F   F
  0.8333077443307388  0.5833845113385223  0.3953685316643956   F   F   F
  0.0833077443307388  0.5833845113385223  0.3953685316643956   F   F   F
  0.3333077443307388  0.8333845113385223  0.3953685316643956   F   F   F
  0.5833077443307388  0.8333845113385223  0.3953685316643956   F   F   F
  0.8333077443307388  0.8333845113385223  0.3953685316643956   F   F   F
  0.0833077443307388  0.8333845113385223  0.3953685316643956   F   F   F
  0.4166410776640745  0.1667178446718580  0.4651228438881319   F   F   F
  0.6666410776640745  0.1667178446718580  0.4651228438881319   F   F   F
  0.9166410776640745  0.1667178446718580  0.4651228438881319   F   F   F
  0.1666410776640745  0.1667178446718580  0.4651228438881319   F   F   F
  0.4166410776640745  0.4167178446718580  0.4651228438881319   F   F   F
  0.6666410776640745  0.4167178446718580  0.4651228438881319   F   F   F
  0.9166410776640745  0.4167178446718580  0.4651228438881319   F   F   F
  0.1666410776640745  0.4167178446718580  0.4651228438881319   F   F   F
  0.4166410776640745  0.6667178446718580  0.4651228438881319   F   F   F
  0.6666410776640745  0.6667178446718580  0.4651228438881319   F   F   F
  0.9166410776640745  0.6667178446718580  0.4651228438881319   F   F   F
  0.1666410776640745  0.6667178446718580  0.4651228438881319   F   F   F
  0.4166410776640745  0.9167178446718580  0.4651228438881319   F   F   F
  0.6666410776640745  0.9167178446718580  0.4651228438881319   F   F   F
  0.9166410776640745  0.9167178446718580  0.4651228438881319   F   F   F
  0.1666410776640745  0.9167178446718580  0.4651228438881319   F   F   F
  0.2500385645454741  0.2501317651213126  0.5336508906901665   T   T   T
  0.5003950566130049  0.2503278504682528  0.5340251221700464   T   T   T
  0.7492770929187351  0.2503278504682528  0.5340251221700464   T   T   T
  0.9998296703332229  0.2501317651213126  0.5336508906901665   T   T   T
  0.2502235776233719  0.5004914165488080  0.5340218539105401   T   T   T
  0.4999699889235544  0.5000600221528769  0.5338044635979942   T   T   T
  0.7492850058277989  0.5004914165488080  0.5340218539105401   T   T   T
  0.9999450451417591  0.5001099097164524  0.5338001066343112   T   T   T
  0.2502251528704827  0.7493782525803694  0.5340230139670152   T   T   T
  0.5003965945491428  0.7493782525803694  0.5340230139670152   T   T   T
  0.7500197005664162  0.7501041680491339  0.5338360536034167   T   T   T
  0.9998761313844429  0.7501041680491339  0.5338360536034167   T   T   T
  0.2500371388025412  0.9999257223948970  0.5336502466866959   T   T   T
  0.5000302532713210  0.0000346713093908  0.5337975350423986   T   T   T
  0.7500180158366025  0.9999639683267767  0.5338330994793505   T   T   T
  0.9999350754192843  0.0000346713093908  0.5337975350423986   T   T   T
  0.3332221243180128  0.0834381922418262  0.6021394029059871   T   T   T
  0.5836587618814747  0.0826772368700691  0.6022275128532752   T   T   T
  0.8336640012484340  0.0826772368700691  0.6022275128532752   T   T   T
  0.0833396834401710  0.0834381922418262  0.6021394029059871   T   T   T
  0.3318382073815689  0.3319643312555570  0.6020286092730283   T   T   T
  0.5833180183350344  0.3333639633299043  0.6033417708164127   T   T   T
  0.8361974613628472  0.3319643312555570  0.6020286092730283   T   T   T
  0.0833398144893180  0.3333203710213677  0.6021395526908027   T   T   T
  0.3331818732164422  0.5834718240193228  0.6033192058756232   T   T   T
  0.5833463027642205  0.5834718240193228  0.6033192058756232   T   T   T
  0.8336742074305060  0.5837594586555240  0.6022241283297699   T   T   T
  0.0825663339139513  0.5837594586555240  0.6022241283297699   T   T   T
  0.3318489015891298  0.8363021968217476  0.6020248676370140   T   T   T
  0.5836613573909062  0.8337693183414669  0.6022232707928300   T   T   T
  0.8333021055436373  0.8333957889127221  0.6022973841289220   T   T   T
  0.0825693242676274  0.8337693183414669  0.6022232707928300   T   T   T
  0.5000440376633296  0.4999119246733516  0.6616284848124049   T   T   T
  0.4451845605661799  0.6096308788676260  0.6747993576477100   T   T   T
  0.6096552802515838  0.4451869312687019  0.6748565655764143   T   T   T
  0.4451577884797212  0.4451869312687019  0.6748565655764143   T   T   T
 
  0.00000000E+00  0.00000000E+00  0.00000000E+00
  0.00000000E+00  0.00000000E+00  0.00000000E+00
  0.00000000E+00  0.00000000E+00  0.00000000E+00
  0.00000000E+00  0.00000000E+00  0.00000000E+00
  0.00000000E+00  0.00000000E+00  0.00000000E+00
  0.00000000E+00  0.00000000E+00  0.00000000E+00
  0.00000000E+00  0.00000000E+00  0.00000000E+00
  0.00000000E+00  0.00000000E+00  0.00000000E+00
  0.00000000E+00  0.00000000E+00  0.00000000E+00
  0.00000000E+00  0.00000000E+00  0.00000000E+00
  0.00000000E+00  0.00000000E+00  0.00000000E+00
  0.00000000E+00  0.00000000E+00  0.00000000E+00
  0.00000000E+00  0.00000000E+00  0.00000000E+00
  0.00000000E+00  0.00000000E+00  0.00000000E+00
  0.00000000E+00  0.00000000E+00  0.00000000E+00
  0.00000000E+00  0.00000000E+00  0.00000000E+00
  0.00000000E+00  0.00000000E+00  0.00000000E+00
  0.00000000E+00  0.00000000E+00  0.00000000E+00
  0.00000000E+00  0.00000000E+00  0.00000000E+00
  0.00000000E+00  0.00000000E+00  0.00000000E+00
  0.00000000E+00  0.00000000E+00  0.00000000E+00
  0.00000000E+00  0.00000000E+00  0.00000000E+00
  0.00000000E+00  0.00000000E+00  0.00000000E+00
  0.00000000E+00  0.00000000E+00  0.00000000E+00
  0.00000000E+00  0.00000000E+00  0.00000000E+00
  0.00000000E+00  0.00000000E+00  0.00000000E+00
  0.00000000E+00  0.00000000E+00  0.00000000E+00
  0.00000000E+00  0.00000000E+00  0.00000000E+00
  0.00000000E+00  0.00000000E+00  0.00000000E+00
  0.00000000E+00  0.00000000E+00  0.00000000E+00
  0.00000000E+00  0.00000000E+00  0.00000000E+00
  0.00000000E+00  0.00000000E+00  0.00000000E+00
  0.00000000E+00  0.00000000E+00  0.00000000E+00
  0.00000000E+00  0.00000000E+00  0.00000000E+00
  0.00000000E+00  0.00000000E+00  0.00000000E+00
  0.00000000E+00  0.00000000E+00  0.00000000E+00
  0.00000000E+00  0.00000000E+00  0.00000000E+00
  0.00000000E+00  0.00000000E+00  0.00000000E+00
  0.00000000E+00  0.00000000E+00  0.00000000E+00
  0.00000000E+00  0.00000000E+00  0.00000000E+00
  0.00000000E+00  0.00000000E+00  0.00000000E+00
  0.00000000E+00  0.00000000E+00  0.00000000E+00
  0.00000000E+00  0.00000000E+00  0.00000000E+00
  0.00000000E+00  0.00000000E+00  0.00000000E+00
  0.00000000E+00  0.00000000E+00  0.00000000E+00
  0.00000000E+00  0.00000000E+00  0.00000000E+00
  0.00000000E+00  0.00000000E+00  0.00000000E+00
  0.00000000E+00  0.00000000E+00  0.00000000E+00
  0.00000000E+00  0.00000000E+00  0.00000000E+00
  0.00000000E+00  0.00000000E+00  0.00000000E+00
  0.00000000E+00  0.00000000E+00  0.00000000E+00
  0.00000000E+00  0.00000000E+00  0.00000000E+00
  0.00000000E+00  0.00000000E+00  0.00000000E+00
  0.00000000E+00  0.00000000E+00  0.00000000E+00
  0.00000000E+00  0.00000000E+00  0.00000000E+00
  0.00000000E+00  0.00000000E+00  0.00000000E+00
  0.00000000E+00  0.00000000E+00  0.00000000E+00
  0.00000000E+00  0.00000000E+00  0.00000000E+00
  0.00000000E+00  0.00000000E+00  0.00000000E+00
  0.00000000E+00  0.00000000E+00  0.00000000E+00
  0.00000000E+00  0.00000000E+00  0.00000000E+00
  0.00000000E+00  0.00000000E+00  0.00000000E+00
  0.00000000E+00  0.00000000E+00  0.00000000E+00
  0.00000000E+00  0.00000000E+00  0.00000000E+00
  0.00000000E+00  0.00000000E+00  0.00000000E+00
  0.00000000E+00  0.00000000E+00  0.00000000E+00
  0.00000000E+00  0.00000000E+00  0.00000000E+00
  0.00000000E+00  0.00000000E+00  0.00000000E+00
